(set-logic QF_LRA)
(declare-fun T1 () Real )
(declare-fun T2 () Real )
(declare-fun T3 () Real )
(declare-fun T4 () Real )
(declare-fun T5 () Real )
(declare-fun T6 () Real )
(declare-fun T7 () Real )
(declare-fun T8 () Real )
(declare-fun T9 () Real )
(declare-fun T10 () Real )
(declare-fun Z () Real )
(declare-fun k () Real )
(assert (let
(( $goal (>= Z k) ))
(let
((
$phi ( and 
(or ( <= ( + T1 5 ) T2 ) ( <= ( + T2 16 ) T1 ) )
(or ( <= ( + T1 36 )  ( + T2 16 ) ) ( <= ( + T2 62 )( + T1 5 ) ) )
(or ( <= ( + T1 98 )  ( + T2 62 ) ) ( <= ( + T2 160 )( + T1 36 ) ) )
(or ( <= ( + T1 125 )  ( + T2 160 ) ) ( <= ( + T2 205 )( + T1 98 ) ) )
(or ( <= ( + T1 216 )  ( + T2 205 ) ) ( <= ( + T2 276 )( + T1 125 ) ) )
(or ( <= ( + T1 307 )  ( + T2 276 ) ) ( <= ( + T2 372 )( + T1 216 ) ) )
(or ( <= ( + T1 392 )  ( + T2 372 ) ) ( <= ( + T2 405 )( + T1 307 ) ) )
(or ( <= ( + T1 466 )  ( + T2 405 ) ) ( <= ( + T2 448 )( + T1 392 ) ) )
(or ( <= ( + T1 512 )  ( + T2 448 ) ) ( <= ( + T2 503 )( + T1 466 ) ) )
(or ( <= ( + T1 587 )  ( + T2 503 ) ) ( <= ( + T2 531 )( + T1 512 ) ) )
(or ( <= ( + T1 662 )  ( + T2 531 ) ) ( <= ( + T2 627 )( + T1 587 ) ) )
(or ( <= ( + T1 702 )  ( + T2 627 ) ) ( <= ( + T2 645 )( + T1 662 ) ) )
(or ( <= ( + T1 5 ) T3 ) ( <= ( + T3 45 ) T1 ) )
(or ( <= ( + T1 36 )  ( + T3 45 ) ) ( <= ( + T3 108 )( + T1 5 ) ) )
(or ( <= ( + T1 98 )  ( + T3 108 ) ) ( <= ( + T3 184 )( + T1 36 ) ) )
(or ( <= ( + T1 125 )  ( + T3 184 ) ) ( <= ( + T3 197 )( + T1 98 ) ) )
(or ( <= ( + T1 216 )  ( + T3 197 ) ) ( <= ( + T3 255 )( + T1 125 ) ) )
(or ( <= ( + T1 307 )  ( + T3 255 ) ) ( <= ( + T3 262 )( + T1 216 ) ) )
(or ( <= ( + T1 392 )  ( + T3 262 ) ) ( <= ( + T3 287 )( + T1 307 ) ) )
(or ( <= ( + T1 466 )  ( + T3 287 ) ) ( <= ( + T3 349 )( + T1 392 ) ) )
(or ( <= ( + T1 512 )  ( + T3 349 ) ) ( <= ( + T3 387 )( + T1 466 ) ) )
(or ( <= ( + T1 587 )  ( + T3 387 ) ) ( <= ( + T3 473 )( + T1 512 ) ) )
(or ( <= ( + T1 662 )  ( + T3 473 ) ) ( <= ( + T3 514 )( + T1 587 ) ) )
(or ( <= ( + T1 702 )  ( + T3 514 ) ) ( <= ( + T3 594 )( + T1 662 ) ) )
(or ( <= ( + T1 5 ) T4 ) ( <= ( + T4 76 ) T1 ) )
(or ( <= ( + T1 36 )  ( + T4 76 ) ) ( <= ( + T4 101 )( + T1 5 ) ) )
(or ( <= ( + T1 98 )  ( + T4 101 ) ) ( <= ( + T4 155 )( + T1 36 ) ) )
(or ( <= ( + T1 125 )  ( + T4 155 ) ) ( <= ( + T4 228 )( + T1 98 ) ) )
(or ( <= ( + T1 216 )  ( + T4 228 ) ) ( <= ( + T4 279 )( + T1 125 ) ) )
(or ( <= ( + T1 307 )  ( + T4 279 ) ) ( <= ( + T4 307 )( + T1 216 ) ) )
(or ( <= ( + T1 392 )  ( + T4 307 ) ) ( <= ( + T4 372 )( + T1 307 ) ) )
(or ( <= ( + T1 466 )  ( + T4 372 ) ) ( <= ( + T4 438 )( + T1 392 ) ) )
(or ( <= ( + T1 512 )  ( + T4 438 ) ) ( <= ( + T4 463 )( + T1 466 ) ) )
(or ( <= ( + T1 587 )  ( + T4 463 ) ) ( <= ( + T4 525 )( + T1 512 ) ) )
(or ( <= ( + T1 662 )  ( + T4 525 ) ) ( <= ( + T4 588 )( + T1 587 ) ) )
(or ( <= ( + T1 702 )  ( + T4 588 ) ) ( <= ( + T4 683 )( + T1 662 ) ) )
(or ( <= ( + T1 5 ) T5 ) ( <= ( + T5 9 ) T1 ) )
(or ( <= ( + T1 36 )  ( + T5 9 ) ) ( <= ( + T5 56 )( + T1 5 ) ) )
(or ( <= ( + T1 98 )  ( + T5 56 ) ) ( <= ( + T5 94 )( + T1 36 ) ) )
(or ( <= ( + T1 125 )  ( + T5 94 ) ) ( <= ( + T5 110 )( + T1 98 ) ) )
(or ( <= ( + T1 216 )  ( + T5 110 ) ) ( <= ( + T5 137 )( + T1 125 ) ) )
(or ( <= ( + T1 307 )  ( + T5 137 ) ) ( <= ( + T5 170 )( + T1 216 ) ) )
(or ( <= ( + T1 392 )  ( + T5 170 ) ) ( <= ( + T5 203 )( + T1 307 ) ) )
(or ( <= ( + T1 466 )  ( + T5 203 ) ) ( <= ( + T5 274 )( + T1 392 ) ) )
(or ( <= ( + T1 512 )  ( + T5 274 ) ) ( <= ( + T5 321 )( + T1 466 ) ) )
(or ( <= ( + T1 587 )  ( + T5 321 ) ) ( <= ( + T5 329 )( + T1 512 ) ) )
(or ( <= ( + T1 662 )  ( + T5 329 ) ) ( <= ( + T5 364 )( + T1 587 ) ) )
(or ( <= ( + T1 702 )  ( + T5 364 ) ) ( <= ( + T5 369 )( + T1 662 ) ) )
(or ( <= ( + T1 5 ) T6 ) ( <= ( + T6 66 ) T1 ) )
(or ( <= ( + T1 36 )  ( + T6 66 ) ) ( <= ( + T6 77 )( + T1 5 ) ) )
(or ( <= ( + T1 98 )  ( + T6 77 ) ) ( <= ( + T6 95 )( + T1 36 ) ) )
(or ( <= ( + T1 125 )  ( + T6 95 ) ) ( <= ( + T6 98 )( + T1 98 ) ) )
(or ( <= ( + T1 216 )  ( + T6 98 ) ) ( <= ( + T6 194 )( + T1 125 ) ) )
(or ( <= ( + T1 307 )  ( + T6 194 ) ) ( <= ( + T6 252 )( + T1 216 ) ) )
(or ( <= ( + T1 392 )  ( + T6 252 ) ) ( <= ( + T6 287 )( + T1 307 ) ) )
(or ( <= ( + T1 466 )  ( + T6 287 ) ) ( <= ( + T6 311 )( + T1 392 ) ) )
(or ( <= ( + T1 512 )  ( + T6 311 ) ) ( <= ( + T6 393 )( + T1 466 ) ) )
(or ( <= ( + T1 587 )  ( + T6 393 ) ) ( <= ( + T6 481 )( + T1 512 ) ) )
(or ( <= ( + T1 662 )  ( + T6 481 ) ) ( <= ( + T6 529 )( + T1 587 ) ) )
(or ( <= ( + T1 702 )  ( + T6 529 ) ) ( <= ( + T6 562 )( + T1 662 ) ) )
(or ( <= ( + T1 5 ) T7 ) ( <= ( + T7 67 ) T1 ) )
(or ( <= ( + T1 36 )  ( + T7 67 ) ) ( <= ( + T7 79 )( + T1 5 ) ) )
(or ( <= ( + T1 98 )  ( + T7 79 ) ) ( <= ( + T7 129 )( + T1 36 ) ) )
(or ( <= ( + T1 125 )  ( + T7 129 ) ) ( <= ( + T7 221 )( + T1 98 ) ) )
(or ( <= ( + T1 216 )  ( + T7 221 ) ) ( <= ( + T7 247 )( + T1 125 ) ) )
(or ( <= ( + T1 307 )  ( + T7 247 ) ) ( <= ( + T7 311 )( + T1 216 ) ) )
(or ( <= ( + T1 392 )  ( + T7 311 ) ) ( <= ( + T7 349 )( + T1 307 ) ) )
(or ( <= ( + T1 466 )  ( + T7 349 ) ) ( <= ( + T7 435 )( + T1 392 ) ) )
(or ( <= ( + T1 512 )  ( + T7 435 ) ) ( <= ( + T7 498 )( + T1 466 ) ) )
(or ( <= ( + T1 587 )  ( + T7 498 ) ) ( <= ( + T7 573 )( + T1 512 ) ) )
(or ( <= ( + T1 662 )  ( + T7 573 ) ) ( <= ( + T7 574 )( + T1 587 ) ) )
(or ( <= ( + T1 702 )  ( + T7 574 ) ) ( <= ( + T7 663 )( + T1 662 ) ) )
(or ( <= ( + T1 5 ) T8 ) ( <= ( + T8 60 ) T1 ) )
(or ( <= ( + T1 36 )  ( + T8 60 ) ) ( <= ( + T8 93 )( + T1 5 ) ) )
(or ( <= ( + T1 98 )  ( + T8 93 ) ) ( <= ( + T8 104 )( + T1 36 ) ) )
(or ( <= ( + T1 125 )  ( + T8 104 ) ) ( <= ( + T8 110 )( + T1 98 ) ) )
(or ( <= ( + T1 216 )  ( + T8 110 ) ) ( <= ( + T8 202 )( + T1 125 ) ) )
(or ( <= ( + T1 307 )  ( + T8 202 ) ) ( <= ( + T8 247 )( + T1 216 ) ) )
(or ( <= ( + T1 392 )  ( + T8 247 ) ) ( <= ( + T8 309 )( + T1 307 ) ) )
(or ( <= ( + T1 466 )  ( + T8 309 ) ) ( <= ( + T8 367 )( + T1 392 ) ) )
(or ( <= ( + T1 512 )  ( + T8 367 ) ) ( <= ( + T8 422 )( + T1 466 ) ) )
(or ( <= ( + T1 587 )  ( + T8 422 ) ) ( <= ( + T8 502 )( + T1 512 ) ) )
(or ( <= ( + T1 662 )  ( + T8 502 ) ) ( <= ( + T8 514 )( + T1 587 ) ) )
(or ( <= ( + T1 702 )  ( + T8 514 ) ) ( <= ( + T8 516 )( + T1 662 ) ) )
(or ( <= ( + T1 5 ) T9 ) ( <= ( + T9 37 ) T1 ) )
(or ( <= ( + T1 36 )  ( + T9 37 ) ) ( <= ( + T9 83 )( + T1 5 ) ) )
(or ( <= ( + T1 98 )  ( + T9 83 ) ) ( <= ( + T9 160 )( + T1 36 ) ) )
(or ( <= ( + T1 125 )  ( + T9 160 ) ) ( <= ( + T9 231 )( + T1 98 ) ) )
(or ( <= ( + T1 216 )  ( + T9 231 ) ) ( <= ( + T9 264 )( + T1 125 ) ) )
(or ( <= ( + T1 307 )  ( + T9 264 ) ) ( <= ( + T9 289 )( + T1 216 ) ) )
(or ( <= ( + T1 392 )  ( + T9 289 ) ) ( <= ( + T9 344 )( + T1 307 ) ) )
(or ( <= ( + T1 466 )  ( + T9 344 ) ) ( <= ( + T9 396 )( + T1 392 ) ) )
(or ( <= ( + T1 512 )  ( + T9 396 ) ) ( <= ( + T9 484 )( + T1 466 ) ) )
(or ( <= ( + T1 587 )  ( + T9 484 ) ) ( <= ( + T9 540 )( + T1 512 ) ) )
(or ( <= ( + T1 662 )  ( + T9 540 ) ) ( <= ( + T9 635 )( + T1 587 ) ) )
(or ( <= ( + T1 702 )  ( + T9 635 ) ) ( <= ( + T9 648 )( + T1 662 ) ) )
(or ( <= ( + T1 5 ) T10 ) ( <= ( + T10 20 ) T1 ) )
(or ( <= ( + T1 36 )  ( + T10 20 ) ) ( <= ( + T10 52 )( + T1 5 ) ) )
(or ( <= ( + T1 98 )  ( + T10 52 ) ) ( <= ( + T10 151 )( + T1 36 ) ) )
(or ( <= ( + T1 125 )  ( + T10 151 ) ) ( <= ( + T10 185 )( + T1 98 ) ) )
(or ( <= ( + T1 216 )  ( + T10 185 ) ) ( <= ( + T10 192 )( + T1 125 ) ) )
(or ( <= ( + T1 307 )  ( + T10 192 ) ) ( <= ( + T10 291 )( + T1 216 ) ) )
(or ( <= ( + T1 392 )  ( + T10 291 ) ) ( <= ( + T10 313 )( + T1 307 ) ) )
(or ( <= ( + T1 466 )  ( + T10 313 ) ) ( <= ( + T10 331 )( + T1 392 ) ) )
(or ( <= ( + T1 512 )  ( + T10 331 ) ) ( <= ( + T10 415 )( + T1 466 ) ) )
(or ( <= ( + T1 587 )  ( + T10 415 ) ) ( <= ( + T10 447 )( + T1 512 ) ) )
(or ( <= ( + T1 662 )  ( + T10 447 ) ) ( <= ( + T10 522 )( + T1 587 ) ) )
(or ( <= ( + T1 702 )  ( + T10 522 ) ) ( <= ( + T10 597 )( + T1 662 ) ) )
(or ( <= ( + T2 16 ) T3 ) ( <= ( + T3 45 ) T2 ) )
(or ( <= ( + T2 62 )  ( + T3 45 ) ) ( <= ( + T3 108 )( + T2 16 ) ) )
(or ( <= ( + T2 160 )  ( + T3 108 ) ) ( <= ( + T3 184 )( + T2 62 ) ) )
(or ( <= ( + T2 205 )  ( + T3 184 ) ) ( <= ( + T3 197 )( + T2 160 ) ) )
(or ( <= ( + T2 276 )  ( + T3 197 ) ) ( <= ( + T3 255 )( + T2 205 ) ) )
(or ( <= ( + T2 372 )  ( + T3 255 ) ) ( <= ( + T3 262 )( + T2 276 ) ) )
(or ( <= ( + T2 405 )  ( + T3 262 ) ) ( <= ( + T3 287 )( + T2 372 ) ) )
(or ( <= ( + T2 448 )  ( + T3 287 ) ) ( <= ( + T3 349 )( + T2 405 ) ) )
(or ( <= ( + T2 503 )  ( + T3 349 ) ) ( <= ( + T3 387 )( + T2 448 ) ) )
(or ( <= ( + T2 531 )  ( + T3 387 ) ) ( <= ( + T3 473 )( + T2 503 ) ) )
(or ( <= ( + T2 627 )  ( + T3 473 ) ) ( <= ( + T3 514 )( + T2 531 ) ) )
(or ( <= ( + T2 645 )  ( + T3 514 ) ) ( <= ( + T3 594 )( + T2 627 ) ) )
(or ( <= ( + T2 16 ) T4 ) ( <= ( + T4 76 ) T2 ) )
(or ( <= ( + T2 62 )  ( + T4 76 ) ) ( <= ( + T4 101 )( + T2 16 ) ) )
(or ( <= ( + T2 160 )  ( + T4 101 ) ) ( <= ( + T4 155 )( + T2 62 ) ) )
(or ( <= ( + T2 205 )  ( + T4 155 ) ) ( <= ( + T4 228 )( + T2 160 ) ) )
(or ( <= ( + T2 276 )  ( + T4 228 ) ) ( <= ( + T4 279 )( + T2 205 ) ) )
(or ( <= ( + T2 372 )  ( + T4 279 ) ) ( <= ( + T4 307 )( + T2 276 ) ) )
(or ( <= ( + T2 405 )  ( + T4 307 ) ) ( <= ( + T4 372 )( + T2 372 ) ) )
(or ( <= ( + T2 448 )  ( + T4 372 ) ) ( <= ( + T4 438 )( + T2 405 ) ) )
(or ( <= ( + T2 503 )  ( + T4 438 ) ) ( <= ( + T4 463 )( + T2 448 ) ) )
(or ( <= ( + T2 531 )  ( + T4 463 ) ) ( <= ( + T4 525 )( + T2 503 ) ) )
(or ( <= ( + T2 627 )  ( + T4 525 ) ) ( <= ( + T4 588 )( + T2 531 ) ) )
(or ( <= ( + T2 645 )  ( + T4 588 ) ) ( <= ( + T4 683 )( + T2 627 ) ) )
(or ( <= ( + T2 16 ) T5 ) ( <= ( + T5 9 ) T2 ) )
(or ( <= ( + T2 62 )  ( + T5 9 ) ) ( <= ( + T5 56 )( + T2 16 ) ) )
(or ( <= ( + T2 160 )  ( + T5 56 ) ) ( <= ( + T5 94 )( + T2 62 ) ) )
(or ( <= ( + T2 205 )  ( + T5 94 ) ) ( <= ( + T5 110 )( + T2 160 ) ) )
(or ( <= ( + T2 276 )  ( + T5 110 ) ) ( <= ( + T5 137 )( + T2 205 ) ) )
(or ( <= ( + T2 372 )  ( + T5 137 ) ) ( <= ( + T5 170 )( + T2 276 ) ) )
(or ( <= ( + T2 405 )  ( + T5 170 ) ) ( <= ( + T5 203 )( + T2 372 ) ) )
(or ( <= ( + T2 448 )  ( + T5 203 ) ) ( <= ( + T5 274 )( + T2 405 ) ) )
(or ( <= ( + T2 503 )  ( + T5 274 ) ) ( <= ( + T5 321 )( + T2 448 ) ) )
(or ( <= ( + T2 531 )  ( + T5 321 ) ) ( <= ( + T5 329 )( + T2 503 ) ) )
(or ( <= ( + T2 627 )  ( + T5 329 ) ) ( <= ( + T5 364 )( + T2 531 ) ) )
(or ( <= ( + T2 645 )  ( + T5 364 ) ) ( <= ( + T5 369 )( + T2 627 ) ) )
(or ( <= ( + T2 16 ) T6 ) ( <= ( + T6 66 ) T2 ) )
(or ( <= ( + T2 62 )  ( + T6 66 ) ) ( <= ( + T6 77 )( + T2 16 ) ) )
(or ( <= ( + T2 160 )  ( + T6 77 ) ) ( <= ( + T6 95 )( + T2 62 ) ) )
(or ( <= ( + T2 205 )  ( + T6 95 ) ) ( <= ( + T6 98 )( + T2 160 ) ) )
(or ( <= ( + T2 276 )  ( + T6 98 ) ) ( <= ( + T6 194 )( + T2 205 ) ) )
(or ( <= ( + T2 372 )  ( + T6 194 ) ) ( <= ( + T6 252 )( + T2 276 ) ) )
(or ( <= ( + T2 405 )  ( + T6 252 ) ) ( <= ( + T6 287 )( + T2 372 ) ) )
(or ( <= ( + T2 448 )  ( + T6 287 ) ) ( <= ( + T6 311 )( + T2 405 ) ) )
(or ( <= ( + T2 503 )  ( + T6 311 ) ) ( <= ( + T6 393 )( + T2 448 ) ) )
(or ( <= ( + T2 531 )  ( + T6 393 ) ) ( <= ( + T6 481 )( + T2 503 ) ) )
(or ( <= ( + T2 627 )  ( + T6 481 ) ) ( <= ( + T6 529 )( + T2 531 ) ) )
(or ( <= ( + T2 645 )  ( + T6 529 ) ) ( <= ( + T6 562 )( + T2 627 ) ) )
(or ( <= ( + T2 16 ) T7 ) ( <= ( + T7 67 ) T2 ) )
(or ( <= ( + T2 62 )  ( + T7 67 ) ) ( <= ( + T7 79 )( + T2 16 ) ) )
(or ( <= ( + T2 160 )  ( + T7 79 ) ) ( <= ( + T7 129 )( + T2 62 ) ) )
(or ( <= ( + T2 205 )  ( + T7 129 ) ) ( <= ( + T7 221 )( + T2 160 ) ) )
(or ( <= ( + T2 276 )  ( + T7 221 ) ) ( <= ( + T7 247 )( + T2 205 ) ) )
(or ( <= ( + T2 372 )  ( + T7 247 ) ) ( <= ( + T7 311 )( + T2 276 ) ) )
(or ( <= ( + T2 405 )  ( + T7 311 ) ) ( <= ( + T7 349 )( + T2 372 ) ) )
(or ( <= ( + T2 448 )  ( + T7 349 ) ) ( <= ( + T7 435 )( + T2 405 ) ) )
(or ( <= ( + T2 503 )  ( + T7 435 ) ) ( <= ( + T7 498 )( + T2 448 ) ) )
(or ( <= ( + T2 531 )  ( + T7 498 ) ) ( <= ( + T7 573 )( + T2 503 ) ) )
(or ( <= ( + T2 627 )  ( + T7 573 ) ) ( <= ( + T7 574 )( + T2 531 ) ) )
(or ( <= ( + T2 645 )  ( + T7 574 ) ) ( <= ( + T7 663 )( + T2 627 ) ) )
(or ( <= ( + T2 16 ) T8 ) ( <= ( + T8 60 ) T2 ) )
(or ( <= ( + T2 62 )  ( + T8 60 ) ) ( <= ( + T8 93 )( + T2 16 ) ) )
(or ( <= ( + T2 160 )  ( + T8 93 ) ) ( <= ( + T8 104 )( + T2 62 ) ) )
(or ( <= ( + T2 205 )  ( + T8 104 ) ) ( <= ( + T8 110 )( + T2 160 ) ) )
(or ( <= ( + T2 276 )  ( + T8 110 ) ) ( <= ( + T8 202 )( + T2 205 ) ) )
(or ( <= ( + T2 372 )  ( + T8 202 ) ) ( <= ( + T8 247 )( + T2 276 ) ) )
(or ( <= ( + T2 405 )  ( + T8 247 ) ) ( <= ( + T8 309 )( + T2 372 ) ) )
(or ( <= ( + T2 448 )  ( + T8 309 ) ) ( <= ( + T8 367 )( + T2 405 ) ) )
(or ( <= ( + T2 503 )  ( + T8 367 ) ) ( <= ( + T8 422 )( + T2 448 ) ) )
(or ( <= ( + T2 531 )  ( + T8 422 ) ) ( <= ( + T8 502 )( + T2 503 ) ) )
(or ( <= ( + T2 627 )  ( + T8 502 ) ) ( <= ( + T8 514 )( + T2 531 ) ) )
(or ( <= ( + T2 645 )  ( + T8 514 ) ) ( <= ( + T8 516 )( + T2 627 ) ) )
(or ( <= ( + T2 16 ) T9 ) ( <= ( + T9 37 ) T2 ) )
(or ( <= ( + T2 62 )  ( + T9 37 ) ) ( <= ( + T9 83 )( + T2 16 ) ) )
(or ( <= ( + T2 160 )  ( + T9 83 ) ) ( <= ( + T9 160 )( + T2 62 ) ) )
(or ( <= ( + T2 205 )  ( + T9 160 ) ) ( <= ( + T9 231 )( + T2 160 ) ) )
(or ( <= ( + T2 276 )  ( + T9 231 ) ) ( <= ( + T9 264 )( + T2 205 ) ) )
(or ( <= ( + T2 372 )  ( + T9 264 ) ) ( <= ( + T9 289 )( + T2 276 ) ) )
(or ( <= ( + T2 405 )  ( + T9 289 ) ) ( <= ( + T9 344 )( + T2 372 ) ) )
(or ( <= ( + T2 448 )  ( + T9 344 ) ) ( <= ( + T9 396 )( + T2 405 ) ) )
(or ( <= ( + T2 503 )  ( + T9 396 ) ) ( <= ( + T9 484 )( + T2 448 ) ) )
(or ( <= ( + T2 531 )  ( + T9 484 ) ) ( <= ( + T9 540 )( + T2 503 ) ) )
(or ( <= ( + T2 627 )  ( + T9 540 ) ) ( <= ( + T9 635 )( + T2 531 ) ) )
(or ( <= ( + T2 645 )  ( + T9 635 ) ) ( <= ( + T9 648 )( + T2 627 ) ) )
(or ( <= ( + T2 16 ) T10 ) ( <= ( + T10 20 ) T2 ) )
(or ( <= ( + T2 62 )  ( + T10 20 ) ) ( <= ( + T10 52 )( + T2 16 ) ) )
(or ( <= ( + T2 160 )  ( + T10 52 ) ) ( <= ( + T10 151 )( + T2 62 ) ) )
(or ( <= ( + T2 205 )  ( + T10 151 ) ) ( <= ( + T10 185 )( + T2 160 ) ) )
(or ( <= ( + T2 276 )  ( + T10 185 ) ) ( <= ( + T10 192 )( + T2 205 ) ) )
(or ( <= ( + T2 372 )  ( + T10 192 ) ) ( <= ( + T10 291 )( + T2 276 ) ) )
(or ( <= ( + T2 405 )  ( + T10 291 ) ) ( <= ( + T10 313 )( + T2 372 ) ) )
(or ( <= ( + T2 448 )  ( + T10 313 ) ) ( <= ( + T10 331 )( + T2 405 ) ) )
(or ( <= ( + T2 503 )  ( + T10 331 ) ) ( <= ( + T10 415 )( + T2 448 ) ) )
(or ( <= ( + T2 531 )  ( + T10 415 ) ) ( <= ( + T10 447 )( + T2 503 ) ) )
(or ( <= ( + T2 627 )  ( + T10 447 ) ) ( <= ( + T10 522 )( + T2 531 ) ) )
(or ( <= ( + T2 645 )  ( + T10 522 ) ) ( <= ( + T10 597 )( + T2 627 ) ) )
(or ( <= ( + T3 45 ) T4 ) ( <= ( + T4 76 ) T3 ) )
(or ( <= ( + T3 108 )  ( + T4 76 ) ) ( <= ( + T4 101 )( + T3 45 ) ) )
(or ( <= ( + T3 184 )  ( + T4 101 ) ) ( <= ( + T4 155 )( + T3 108 ) ) )
(or ( <= ( + T3 197 )  ( + T4 155 ) ) ( <= ( + T4 228 )( + T3 184 ) ) )
(or ( <= ( + T3 255 )  ( + T4 228 ) ) ( <= ( + T4 279 )( + T3 197 ) ) )
(or ( <= ( + T3 262 )  ( + T4 279 ) ) ( <= ( + T4 307 )( + T3 255 ) ) )
(or ( <= ( + T3 287 )  ( + T4 307 ) ) ( <= ( + T4 372 )( + T3 262 ) ) )
(or ( <= ( + T3 349 )  ( + T4 372 ) ) ( <= ( + T4 438 )( + T3 287 ) ) )
(or ( <= ( + T3 387 )  ( + T4 438 ) ) ( <= ( + T4 463 )( + T3 349 ) ) )
(or ( <= ( + T3 473 )  ( + T4 463 ) ) ( <= ( + T4 525 )( + T3 387 ) ) )
(or ( <= ( + T3 514 )  ( + T4 525 ) ) ( <= ( + T4 588 )( + T3 473 ) ) )
(or ( <= ( + T3 594 )  ( + T4 588 ) ) ( <= ( + T4 683 )( + T3 514 ) ) )
(or ( <= ( + T3 45 ) T5 ) ( <= ( + T5 9 ) T3 ) )
(or ( <= ( + T3 108 )  ( + T5 9 ) ) ( <= ( + T5 56 )( + T3 45 ) ) )
(or ( <= ( + T3 184 )  ( + T5 56 ) ) ( <= ( + T5 94 )( + T3 108 ) ) )
(or ( <= ( + T3 197 )  ( + T5 94 ) ) ( <= ( + T5 110 )( + T3 184 ) ) )
(or ( <= ( + T3 255 )  ( + T5 110 ) ) ( <= ( + T5 137 )( + T3 197 ) ) )
(or ( <= ( + T3 262 )  ( + T5 137 ) ) ( <= ( + T5 170 )( + T3 255 ) ) )
(or ( <= ( + T3 287 )  ( + T5 170 ) ) ( <= ( + T5 203 )( + T3 262 ) ) )
(or ( <= ( + T3 349 )  ( + T5 203 ) ) ( <= ( + T5 274 )( + T3 287 ) ) )
(or ( <= ( + T3 387 )  ( + T5 274 ) ) ( <= ( + T5 321 )( + T3 349 ) ) )
(or ( <= ( + T3 473 )  ( + T5 321 ) ) ( <= ( + T5 329 )( + T3 387 ) ) )
(or ( <= ( + T3 514 )  ( + T5 329 ) ) ( <= ( + T5 364 )( + T3 473 ) ) )
(or ( <= ( + T3 594 )  ( + T5 364 ) ) ( <= ( + T5 369 )( + T3 514 ) ) )
(or ( <= ( + T3 45 ) T6 ) ( <= ( + T6 66 ) T3 ) )
(or ( <= ( + T3 108 )  ( + T6 66 ) ) ( <= ( + T6 77 )( + T3 45 ) ) )
(or ( <= ( + T3 184 )  ( + T6 77 ) ) ( <= ( + T6 95 )( + T3 108 ) ) )
(or ( <= ( + T3 197 )  ( + T6 95 ) ) ( <= ( + T6 98 )( + T3 184 ) ) )
(or ( <= ( + T3 255 )  ( + T6 98 ) ) ( <= ( + T6 194 )( + T3 197 ) ) )
(or ( <= ( + T3 262 )  ( + T6 194 ) ) ( <= ( + T6 252 )( + T3 255 ) ) )
(or ( <= ( + T3 287 )  ( + T6 252 ) ) ( <= ( + T6 287 )( + T3 262 ) ) )
(or ( <= ( + T3 349 )  ( + T6 287 ) ) ( <= ( + T6 311 )( + T3 287 ) ) )
(or ( <= ( + T3 387 )  ( + T6 311 ) ) ( <= ( + T6 393 )( + T3 349 ) ) )
(or ( <= ( + T3 473 )  ( + T6 393 ) ) ( <= ( + T6 481 )( + T3 387 ) ) )
(or ( <= ( + T3 514 )  ( + T6 481 ) ) ( <= ( + T6 529 )( + T3 473 ) ) )
(or ( <= ( + T3 594 )  ( + T6 529 ) ) ( <= ( + T6 562 )( + T3 514 ) ) )
(or ( <= ( + T3 45 ) T7 ) ( <= ( + T7 67 ) T3 ) )
(or ( <= ( + T3 108 )  ( + T7 67 ) ) ( <= ( + T7 79 )( + T3 45 ) ) )
(or ( <= ( + T3 184 )  ( + T7 79 ) ) ( <= ( + T7 129 )( + T3 108 ) ) )
(or ( <= ( + T3 197 )  ( + T7 129 ) ) ( <= ( + T7 221 )( + T3 184 ) ) )
(or ( <= ( + T3 255 )  ( + T7 221 ) ) ( <= ( + T7 247 )( + T3 197 ) ) )
(or ( <= ( + T3 262 )  ( + T7 247 ) ) ( <= ( + T7 311 )( + T3 255 ) ) )
(or ( <= ( + T3 287 )  ( + T7 311 ) ) ( <= ( + T7 349 )( + T3 262 ) ) )
(or ( <= ( + T3 349 )  ( + T7 349 ) ) ( <= ( + T7 435 )( + T3 287 ) ) )
(or ( <= ( + T3 387 )  ( + T7 435 ) ) ( <= ( + T7 498 )( + T3 349 ) ) )
(or ( <= ( + T3 473 )  ( + T7 498 ) ) ( <= ( + T7 573 )( + T3 387 ) ) )
(or ( <= ( + T3 514 )  ( + T7 573 ) ) ( <= ( + T7 574 )( + T3 473 ) ) )
(or ( <= ( + T3 594 )  ( + T7 574 ) ) ( <= ( + T7 663 )( + T3 514 ) ) )
(or ( <= ( + T3 45 ) T8 ) ( <= ( + T8 60 ) T3 ) )
(or ( <= ( + T3 108 )  ( + T8 60 ) ) ( <= ( + T8 93 )( + T3 45 ) ) )
(or ( <= ( + T3 184 )  ( + T8 93 ) ) ( <= ( + T8 104 )( + T3 108 ) ) )
(or ( <= ( + T3 197 )  ( + T8 104 ) ) ( <= ( + T8 110 )( + T3 184 ) ) )
(or ( <= ( + T3 255 )  ( + T8 110 ) ) ( <= ( + T8 202 )( + T3 197 ) ) )
(or ( <= ( + T3 262 )  ( + T8 202 ) ) ( <= ( + T8 247 )( + T3 255 ) ) )
(or ( <= ( + T3 287 )  ( + T8 247 ) ) ( <= ( + T8 309 )( + T3 262 ) ) )
(or ( <= ( + T3 349 )  ( + T8 309 ) ) ( <= ( + T8 367 )( + T3 287 ) ) )
(or ( <= ( + T3 387 )  ( + T8 367 ) ) ( <= ( + T8 422 )( + T3 349 ) ) )
(or ( <= ( + T3 473 )  ( + T8 422 ) ) ( <= ( + T8 502 )( + T3 387 ) ) )
(or ( <= ( + T3 514 )  ( + T8 502 ) ) ( <= ( + T8 514 )( + T3 473 ) ) )
(or ( <= ( + T3 594 )  ( + T8 514 ) ) ( <= ( + T8 516 )( + T3 514 ) ) )
(or ( <= ( + T3 45 ) T9 ) ( <= ( + T9 37 ) T3 ) )
(or ( <= ( + T3 108 )  ( + T9 37 ) ) ( <= ( + T9 83 )( + T3 45 ) ) )
(or ( <= ( + T3 184 )  ( + T9 83 ) ) ( <= ( + T9 160 )( + T3 108 ) ) )
(or ( <= ( + T3 197 )  ( + T9 160 ) ) ( <= ( + T9 231 )( + T3 184 ) ) )
(or ( <= ( + T3 255 )  ( + T9 231 ) ) ( <= ( + T9 264 )( + T3 197 ) ) )
(or ( <= ( + T3 262 )  ( + T9 264 ) ) ( <= ( + T9 289 )( + T3 255 ) ) )
(or ( <= ( + T3 287 )  ( + T9 289 ) ) ( <= ( + T9 344 )( + T3 262 ) ) )
(or ( <= ( + T3 349 )  ( + T9 344 ) ) ( <= ( + T9 396 )( + T3 287 ) ) )
(or ( <= ( + T3 387 )  ( + T9 396 ) ) ( <= ( + T9 484 )( + T3 349 ) ) )
(or ( <= ( + T3 473 )  ( + T9 484 ) ) ( <= ( + T9 540 )( + T3 387 ) ) )
(or ( <= ( + T3 514 )  ( + T9 540 ) ) ( <= ( + T9 635 )( + T3 473 ) ) )
(or ( <= ( + T3 594 )  ( + T9 635 ) ) ( <= ( + T9 648 )( + T3 514 ) ) )
(or ( <= ( + T3 45 ) T10 ) ( <= ( + T10 20 ) T3 ) )
(or ( <= ( + T3 108 )  ( + T10 20 ) ) ( <= ( + T10 52 )( + T3 45 ) ) )
(or ( <= ( + T3 184 )  ( + T10 52 ) ) ( <= ( + T10 151 )( + T3 108 ) ) )
(or ( <= ( + T3 197 )  ( + T10 151 ) ) ( <= ( + T10 185 )( + T3 184 ) ) )
(or ( <= ( + T3 255 )  ( + T10 185 ) ) ( <= ( + T10 192 )( + T3 197 ) ) )
(or ( <= ( + T3 262 )  ( + T10 192 ) ) ( <= ( + T10 291 )( + T3 255 ) ) )
(or ( <= ( + T3 287 )  ( + T10 291 ) ) ( <= ( + T10 313 )( + T3 262 ) ) )
(or ( <= ( + T3 349 )  ( + T10 313 ) ) ( <= ( + T10 331 )( + T3 287 ) ) )
(or ( <= ( + T3 387 )  ( + T10 331 ) ) ( <= ( + T10 415 )( + T3 349 ) ) )
(or ( <= ( + T3 473 )  ( + T10 415 ) ) ( <= ( + T10 447 )( + T3 387 ) ) )
(or ( <= ( + T3 514 )  ( + T10 447 ) ) ( <= ( + T10 522 )( + T3 473 ) ) )
(or ( <= ( + T3 594 )  ( + T10 522 ) ) ( <= ( + T10 597 )( + T3 514 ) ) )
(or ( <= ( + T4 76 ) T5 ) ( <= ( + T5 9 ) T4 ) )
(or ( <= ( + T4 101 )  ( + T5 9 ) ) ( <= ( + T5 56 )( + T4 76 ) ) )
(or ( <= ( + T4 155 )  ( + T5 56 ) ) ( <= ( + T5 94 )( + T4 101 ) ) )
(or ( <= ( + T4 228 )  ( + T5 94 ) ) ( <= ( + T5 110 )( + T4 155 ) ) )
(or ( <= ( + T4 279 )  ( + T5 110 ) ) ( <= ( + T5 137 )( + T4 228 ) ) )
(or ( <= ( + T4 307 )  ( + T5 137 ) ) ( <= ( + T5 170 )( + T4 279 ) ) )
(or ( <= ( + T4 372 )  ( + T5 170 ) ) ( <= ( + T5 203 )( + T4 307 ) ) )
(or ( <= ( + T4 438 )  ( + T5 203 ) ) ( <= ( + T5 274 )( + T4 372 ) ) )
(or ( <= ( + T4 463 )  ( + T5 274 ) ) ( <= ( + T5 321 )( + T4 438 ) ) )
(or ( <= ( + T4 525 )  ( + T5 321 ) ) ( <= ( + T5 329 )( + T4 463 ) ) )
(or ( <= ( + T4 588 )  ( + T5 329 ) ) ( <= ( + T5 364 )( + T4 525 ) ) )
(or ( <= ( + T4 683 )  ( + T5 364 ) ) ( <= ( + T5 369 )( + T4 588 ) ) )
(or ( <= ( + T4 76 ) T6 ) ( <= ( + T6 66 ) T4 ) )
(or ( <= ( + T4 101 )  ( + T6 66 ) ) ( <= ( + T6 77 )( + T4 76 ) ) )
(or ( <= ( + T4 155 )  ( + T6 77 ) ) ( <= ( + T6 95 )( + T4 101 ) ) )
(or ( <= ( + T4 228 )  ( + T6 95 ) ) ( <= ( + T6 98 )( + T4 155 ) ) )
(or ( <= ( + T4 279 )  ( + T6 98 ) ) ( <= ( + T6 194 )( + T4 228 ) ) )
(or ( <= ( + T4 307 )  ( + T6 194 ) ) ( <= ( + T6 252 )( + T4 279 ) ) )
(or ( <= ( + T4 372 )  ( + T6 252 ) ) ( <= ( + T6 287 )( + T4 307 ) ) )
(or ( <= ( + T4 438 )  ( + T6 287 ) ) ( <= ( + T6 311 )( + T4 372 ) ) )
(or ( <= ( + T4 463 )  ( + T6 311 ) ) ( <= ( + T6 393 )( + T4 438 ) ) )
(or ( <= ( + T4 525 )  ( + T6 393 ) ) ( <= ( + T6 481 )( + T4 463 ) ) )
(or ( <= ( + T4 588 )  ( + T6 481 ) ) ( <= ( + T6 529 )( + T4 525 ) ) )
(or ( <= ( + T4 683 )  ( + T6 529 ) ) ( <= ( + T6 562 )( + T4 588 ) ) )
(or ( <= ( + T4 76 ) T7 ) ( <= ( + T7 67 ) T4 ) )
(or ( <= ( + T4 101 )  ( + T7 67 ) ) ( <= ( + T7 79 )( + T4 76 ) ) )
(or ( <= ( + T4 155 )  ( + T7 79 ) ) ( <= ( + T7 129 )( + T4 101 ) ) )
(or ( <= ( + T4 228 )  ( + T7 129 ) ) ( <= ( + T7 221 )( + T4 155 ) ) )
(or ( <= ( + T4 279 )  ( + T7 221 ) ) ( <= ( + T7 247 )( + T4 228 ) ) )
(or ( <= ( + T4 307 )  ( + T7 247 ) ) ( <= ( + T7 311 )( + T4 279 ) ) )
(or ( <= ( + T4 372 )  ( + T7 311 ) ) ( <= ( + T7 349 )( + T4 307 ) ) )
(or ( <= ( + T4 438 )  ( + T7 349 ) ) ( <= ( + T7 435 )( + T4 372 ) ) )
(or ( <= ( + T4 463 )  ( + T7 435 ) ) ( <= ( + T7 498 )( + T4 438 ) ) )
(or ( <= ( + T4 525 )  ( + T7 498 ) ) ( <= ( + T7 573 )( + T4 463 ) ) )
(or ( <= ( + T4 588 )  ( + T7 573 ) ) ( <= ( + T7 574 )( + T4 525 ) ) )
(or ( <= ( + T4 683 )  ( + T7 574 ) ) ( <= ( + T7 663 )( + T4 588 ) ) )
(or ( <= ( + T4 76 ) T8 ) ( <= ( + T8 60 ) T4 ) )
(or ( <= ( + T4 101 )  ( + T8 60 ) ) ( <= ( + T8 93 )( + T4 76 ) ) )
(or ( <= ( + T4 155 )  ( + T8 93 ) ) ( <= ( + T8 104 )( + T4 101 ) ) )
(or ( <= ( + T4 228 )  ( + T8 104 ) ) ( <= ( + T8 110 )( + T4 155 ) ) )
(or ( <= ( + T4 279 )  ( + T8 110 ) ) ( <= ( + T8 202 )( + T4 228 ) ) )
(or ( <= ( + T4 307 )  ( + T8 202 ) ) ( <= ( + T8 247 )( + T4 279 ) ) )
(or ( <= ( + T4 372 )  ( + T8 247 ) ) ( <= ( + T8 309 )( + T4 307 ) ) )
(or ( <= ( + T4 438 )  ( + T8 309 ) ) ( <= ( + T8 367 )( + T4 372 ) ) )
(or ( <= ( + T4 463 )  ( + T8 367 ) ) ( <= ( + T8 422 )( + T4 438 ) ) )
(or ( <= ( + T4 525 )  ( + T8 422 ) ) ( <= ( + T8 502 )( + T4 463 ) ) )
(or ( <= ( + T4 588 )  ( + T8 502 ) ) ( <= ( + T8 514 )( + T4 525 ) ) )
(or ( <= ( + T4 683 )  ( + T8 514 ) ) ( <= ( + T8 516 )( + T4 588 ) ) )
(or ( <= ( + T4 76 ) T9 ) ( <= ( + T9 37 ) T4 ) )
(or ( <= ( + T4 101 )  ( + T9 37 ) ) ( <= ( + T9 83 )( + T4 76 ) ) )
(or ( <= ( + T4 155 )  ( + T9 83 ) ) ( <= ( + T9 160 )( + T4 101 ) ) )
(or ( <= ( + T4 228 )  ( + T9 160 ) ) ( <= ( + T9 231 )( + T4 155 ) ) )
(or ( <= ( + T4 279 )  ( + T9 231 ) ) ( <= ( + T9 264 )( + T4 228 ) ) )
(or ( <= ( + T4 307 )  ( + T9 264 ) ) ( <= ( + T9 289 )( + T4 279 ) ) )
(or ( <= ( + T4 372 )  ( + T9 289 ) ) ( <= ( + T9 344 )( + T4 307 ) ) )
(or ( <= ( + T4 438 )  ( + T9 344 ) ) ( <= ( + T9 396 )( + T4 372 ) ) )
(or ( <= ( + T4 463 )  ( + T9 396 ) ) ( <= ( + T9 484 )( + T4 438 ) ) )
(or ( <= ( + T4 525 )  ( + T9 484 ) ) ( <= ( + T9 540 )( + T4 463 ) ) )
(or ( <= ( + T4 588 )  ( + T9 540 ) ) ( <= ( + T9 635 )( + T4 525 ) ) )
(or ( <= ( + T4 683 )  ( + T9 635 ) ) ( <= ( + T9 648 )( + T4 588 ) ) )
(or ( <= ( + T4 76 ) T10 ) ( <= ( + T10 20 ) T4 ) )
(or ( <= ( + T4 101 )  ( + T10 20 ) ) ( <= ( + T10 52 )( + T4 76 ) ) )
(or ( <= ( + T4 155 )  ( + T10 52 ) ) ( <= ( + T10 151 )( + T4 101 ) ) )
(or ( <= ( + T4 228 )  ( + T10 151 ) ) ( <= ( + T10 185 )( + T4 155 ) ) )
(or ( <= ( + T4 279 )  ( + T10 185 ) ) ( <= ( + T10 192 )( + T4 228 ) ) )
(or ( <= ( + T4 307 )  ( + T10 192 ) ) ( <= ( + T10 291 )( + T4 279 ) ) )
(or ( <= ( + T4 372 )  ( + T10 291 ) ) ( <= ( + T10 313 )( + T4 307 ) ) )
(or ( <= ( + T4 438 )  ( + T10 313 ) ) ( <= ( + T10 331 )( + T4 372 ) ) )
(or ( <= ( + T4 463 )  ( + T10 331 ) ) ( <= ( + T10 415 )( + T4 438 ) ) )
(or ( <= ( + T4 525 )  ( + T10 415 ) ) ( <= ( + T10 447 )( + T4 463 ) ) )
(or ( <= ( + T4 588 )  ( + T10 447 ) ) ( <= ( + T10 522 )( + T4 525 ) ) )
(or ( <= ( + T4 683 )  ( + T10 522 ) ) ( <= ( + T10 597 )( + T4 588 ) ) )
(or ( <= ( + T5 9 ) T6 ) ( <= ( + T6 66 ) T5 ) )
(or ( <= ( + T5 56 )  ( + T6 66 ) ) ( <= ( + T6 77 )( + T5 9 ) ) )
(or ( <= ( + T5 94 )  ( + T6 77 ) ) ( <= ( + T6 95 )( + T5 56 ) ) )
(or ( <= ( + T5 110 )  ( + T6 95 ) ) ( <= ( + T6 98 )( + T5 94 ) ) )
(or ( <= ( + T5 137 )  ( + T6 98 ) ) ( <= ( + T6 194 )( + T5 110 ) ) )
(or ( <= ( + T5 170 )  ( + T6 194 ) ) ( <= ( + T6 252 )( + T5 137 ) ) )
(or ( <= ( + T5 203 )  ( + T6 252 ) ) ( <= ( + T6 287 )( + T5 170 ) ) )
(or ( <= ( + T5 274 )  ( + T6 287 ) ) ( <= ( + T6 311 )( + T5 203 ) ) )
(or ( <= ( + T5 321 )  ( + T6 311 ) ) ( <= ( + T6 393 )( + T5 274 ) ) )
(or ( <= ( + T5 329 )  ( + T6 393 ) ) ( <= ( + T6 481 )( + T5 321 ) ) )
(or ( <= ( + T5 364 )  ( + T6 481 ) ) ( <= ( + T6 529 )( + T5 329 ) ) )
(or ( <= ( + T5 369 )  ( + T6 529 ) ) ( <= ( + T6 562 )( + T5 364 ) ) )
(or ( <= ( + T5 9 ) T7 ) ( <= ( + T7 67 ) T5 ) )
(or ( <= ( + T5 56 )  ( + T7 67 ) ) ( <= ( + T7 79 )( + T5 9 ) ) )
(or ( <= ( + T5 94 )  ( + T7 79 ) ) ( <= ( + T7 129 )( + T5 56 ) ) )
(or ( <= ( + T5 110 )  ( + T7 129 ) ) ( <= ( + T7 221 )( + T5 94 ) ) )
(or ( <= ( + T5 137 )  ( + T7 221 ) ) ( <= ( + T7 247 )( + T5 110 ) ) )
(or ( <= ( + T5 170 )  ( + T7 247 ) ) ( <= ( + T7 311 )( + T5 137 ) ) )
(or ( <= ( + T5 203 )  ( + T7 311 ) ) ( <= ( + T7 349 )( + T5 170 ) ) )
(or ( <= ( + T5 274 )  ( + T7 349 ) ) ( <= ( + T7 435 )( + T5 203 ) ) )
(or ( <= ( + T5 321 )  ( + T7 435 ) ) ( <= ( + T7 498 )( + T5 274 ) ) )
(or ( <= ( + T5 329 )  ( + T7 498 ) ) ( <= ( + T7 573 )( + T5 321 ) ) )
(or ( <= ( + T5 364 )  ( + T7 573 ) ) ( <= ( + T7 574 )( + T5 329 ) ) )
(or ( <= ( + T5 369 )  ( + T7 574 ) ) ( <= ( + T7 663 )( + T5 364 ) ) )
(or ( <= ( + T5 9 ) T8 ) ( <= ( + T8 60 ) T5 ) )
(or ( <= ( + T5 56 )  ( + T8 60 ) ) ( <= ( + T8 93 )( + T5 9 ) ) )
(or ( <= ( + T5 94 )  ( + T8 93 ) ) ( <= ( + T8 104 )( + T5 56 ) ) )
(or ( <= ( + T5 110 )  ( + T8 104 ) ) ( <= ( + T8 110 )( + T5 94 ) ) )
(or ( <= ( + T5 137 )  ( + T8 110 ) ) ( <= ( + T8 202 )( + T5 110 ) ) )
(or ( <= ( + T5 170 )  ( + T8 202 ) ) ( <= ( + T8 247 )( + T5 137 ) ) )
(or ( <= ( + T5 203 )  ( + T8 247 ) ) ( <= ( + T8 309 )( + T5 170 ) ) )
(or ( <= ( + T5 274 )  ( + T8 309 ) ) ( <= ( + T8 367 )( + T5 203 ) ) )
(or ( <= ( + T5 321 )  ( + T8 367 ) ) ( <= ( + T8 422 )( + T5 274 ) ) )
(or ( <= ( + T5 329 )  ( + T8 422 ) ) ( <= ( + T8 502 )( + T5 321 ) ) )
(or ( <= ( + T5 364 )  ( + T8 502 ) ) ( <= ( + T8 514 )( + T5 329 ) ) )
(or ( <= ( + T5 369 )  ( + T8 514 ) ) ( <= ( + T8 516 )( + T5 364 ) ) )
(or ( <= ( + T5 9 ) T9 ) ( <= ( + T9 37 ) T5 ) )
(or ( <= ( + T5 56 )  ( + T9 37 ) ) ( <= ( + T9 83 )( + T5 9 ) ) )
(or ( <= ( + T5 94 )  ( + T9 83 ) ) ( <= ( + T9 160 )( + T5 56 ) ) )
(or ( <= ( + T5 110 )  ( + T9 160 ) ) ( <= ( + T9 231 )( + T5 94 ) ) )
(or ( <= ( + T5 137 )  ( + T9 231 ) ) ( <= ( + T9 264 )( + T5 110 ) ) )
(or ( <= ( + T5 170 )  ( + T9 264 ) ) ( <= ( + T9 289 )( + T5 137 ) ) )
(or ( <= ( + T5 203 )  ( + T9 289 ) ) ( <= ( + T9 344 )( + T5 170 ) ) )
(or ( <= ( + T5 274 )  ( + T9 344 ) ) ( <= ( + T9 396 )( + T5 203 ) ) )
(or ( <= ( + T5 321 )  ( + T9 396 ) ) ( <= ( + T9 484 )( + T5 274 ) ) )
(or ( <= ( + T5 329 )  ( + T9 484 ) ) ( <= ( + T9 540 )( + T5 321 ) ) )
(or ( <= ( + T5 364 )  ( + T9 540 ) ) ( <= ( + T9 635 )( + T5 329 ) ) )
(or ( <= ( + T5 369 )  ( + T9 635 ) ) ( <= ( + T9 648 )( + T5 364 ) ) )
(or ( <= ( + T5 9 ) T10 ) ( <= ( + T10 20 ) T5 ) )
(or ( <= ( + T5 56 )  ( + T10 20 ) ) ( <= ( + T10 52 )( + T5 9 ) ) )
(or ( <= ( + T5 94 )  ( + T10 52 ) ) ( <= ( + T10 151 )( + T5 56 ) ) )
(or ( <= ( + T5 110 )  ( + T10 151 ) ) ( <= ( + T10 185 )( + T5 94 ) ) )
(or ( <= ( + T5 137 )  ( + T10 185 ) ) ( <= ( + T10 192 )( + T5 110 ) ) )
(or ( <= ( + T5 170 )  ( + T10 192 ) ) ( <= ( + T10 291 )( + T5 137 ) ) )
(or ( <= ( + T5 203 )  ( + T10 291 ) ) ( <= ( + T10 313 )( + T5 170 ) ) )
(or ( <= ( + T5 274 )  ( + T10 313 ) ) ( <= ( + T10 331 )( + T5 203 ) ) )
(or ( <= ( + T5 321 )  ( + T10 331 ) ) ( <= ( + T10 415 )( + T5 274 ) ) )
(or ( <= ( + T5 329 )  ( + T10 415 ) ) ( <= ( + T10 447 )( + T5 321 ) ) )
(or ( <= ( + T5 364 )  ( + T10 447 ) ) ( <= ( + T10 522 )( + T5 329 ) ) )
(or ( <= ( + T5 369 )  ( + T10 522 ) ) ( <= ( + T10 597 )( + T5 364 ) ) )
(or ( <= ( + T6 66 ) T7 ) ( <= ( + T7 67 ) T6 ) )
(or ( <= ( + T6 77 )  ( + T7 67 ) ) ( <= ( + T7 79 )( + T6 66 ) ) )
(or ( <= ( + T6 95 )  ( + T7 79 ) ) ( <= ( + T7 129 )( + T6 77 ) ) )
(or ( <= ( + T6 98 )  ( + T7 129 ) ) ( <= ( + T7 221 )( + T6 95 ) ) )
(or ( <= ( + T6 194 )  ( + T7 221 ) ) ( <= ( + T7 247 )( + T6 98 ) ) )
(or ( <= ( + T6 252 )  ( + T7 247 ) ) ( <= ( + T7 311 )( + T6 194 ) ) )
(or ( <= ( + T6 287 )  ( + T7 311 ) ) ( <= ( + T7 349 )( + T6 252 ) ) )
(or ( <= ( + T6 311 )  ( + T7 349 ) ) ( <= ( + T7 435 )( + T6 287 ) ) )
(or ( <= ( + T6 393 )  ( + T7 435 ) ) ( <= ( + T7 498 )( + T6 311 ) ) )
(or ( <= ( + T6 481 )  ( + T7 498 ) ) ( <= ( + T7 573 )( + T6 393 ) ) )
(or ( <= ( + T6 529 )  ( + T7 573 ) ) ( <= ( + T7 574 )( + T6 481 ) ) )
(or ( <= ( + T6 562 )  ( + T7 574 ) ) ( <= ( + T7 663 )( + T6 529 ) ) )
(or ( <= ( + T6 66 ) T8 ) ( <= ( + T8 60 ) T6 ) )
(or ( <= ( + T6 77 )  ( + T8 60 ) ) ( <= ( + T8 93 )( + T6 66 ) ) )
(or ( <= ( + T6 95 )  ( + T8 93 ) ) ( <= ( + T8 104 )( + T6 77 ) ) )
(or ( <= ( + T6 98 )  ( + T8 104 ) ) ( <= ( + T8 110 )( + T6 95 ) ) )
(or ( <= ( + T6 194 )  ( + T8 110 ) ) ( <= ( + T8 202 )( + T6 98 ) ) )
(or ( <= ( + T6 252 )  ( + T8 202 ) ) ( <= ( + T8 247 )( + T6 194 ) ) )
(or ( <= ( + T6 287 )  ( + T8 247 ) ) ( <= ( + T8 309 )( + T6 252 ) ) )
(or ( <= ( + T6 311 )  ( + T8 309 ) ) ( <= ( + T8 367 )( + T6 287 ) ) )
(or ( <= ( + T6 393 )  ( + T8 367 ) ) ( <= ( + T8 422 )( + T6 311 ) ) )
(or ( <= ( + T6 481 )  ( + T8 422 ) ) ( <= ( + T8 502 )( + T6 393 ) ) )
(or ( <= ( + T6 529 )  ( + T8 502 ) ) ( <= ( + T8 514 )( + T6 481 ) ) )
(or ( <= ( + T6 562 )  ( + T8 514 ) ) ( <= ( + T8 516 )( + T6 529 ) ) )
(or ( <= ( + T6 66 ) T9 ) ( <= ( + T9 37 ) T6 ) )
(or ( <= ( + T6 77 )  ( + T9 37 ) ) ( <= ( + T9 83 )( + T6 66 ) ) )
(or ( <= ( + T6 95 )  ( + T9 83 ) ) ( <= ( + T9 160 )( + T6 77 ) ) )
(or ( <= ( + T6 98 )  ( + T9 160 ) ) ( <= ( + T9 231 )( + T6 95 ) ) )
(or ( <= ( + T6 194 )  ( + T9 231 ) ) ( <= ( + T9 264 )( + T6 98 ) ) )
(or ( <= ( + T6 252 )  ( + T9 264 ) ) ( <= ( + T9 289 )( + T6 194 ) ) )
(or ( <= ( + T6 287 )  ( + T9 289 ) ) ( <= ( + T9 344 )( + T6 252 ) ) )
(or ( <= ( + T6 311 )  ( + T9 344 ) ) ( <= ( + T9 396 )( + T6 287 ) ) )
(or ( <= ( + T6 393 )  ( + T9 396 ) ) ( <= ( + T9 484 )( + T6 311 ) ) )
(or ( <= ( + T6 481 )  ( + T9 484 ) ) ( <= ( + T9 540 )( + T6 393 ) ) )
(or ( <= ( + T6 529 )  ( + T9 540 ) ) ( <= ( + T9 635 )( + T6 481 ) ) )
(or ( <= ( + T6 562 )  ( + T9 635 ) ) ( <= ( + T9 648 )( + T6 529 ) ) )
(or ( <= ( + T6 66 ) T10 ) ( <= ( + T10 20 ) T6 ) )
(or ( <= ( + T6 77 )  ( + T10 20 ) ) ( <= ( + T10 52 )( + T6 66 ) ) )
(or ( <= ( + T6 95 )  ( + T10 52 ) ) ( <= ( + T10 151 )( + T6 77 ) ) )
(or ( <= ( + T6 98 )  ( + T10 151 ) ) ( <= ( + T10 185 )( + T6 95 ) ) )
(or ( <= ( + T6 194 )  ( + T10 185 ) ) ( <= ( + T10 192 )( + T6 98 ) ) )
(or ( <= ( + T6 252 )  ( + T10 192 ) ) ( <= ( + T10 291 )( + T6 194 ) ) )
(or ( <= ( + T6 287 )  ( + T10 291 ) ) ( <= ( + T10 313 )( + T6 252 ) ) )
(or ( <= ( + T6 311 )  ( + T10 313 ) ) ( <= ( + T10 331 )( + T6 287 ) ) )
(or ( <= ( + T6 393 )  ( + T10 331 ) ) ( <= ( + T10 415 )( + T6 311 ) ) )
(or ( <= ( + T6 481 )  ( + T10 415 ) ) ( <= ( + T10 447 )( + T6 393 ) ) )
(or ( <= ( + T6 529 )  ( + T10 447 ) ) ( <= ( + T10 522 )( + T6 481 ) ) )
(or ( <= ( + T6 562 )  ( + T10 522 ) ) ( <= ( + T10 597 )( + T6 529 ) ) )
(or ( <= ( + T7 67 ) T8 ) ( <= ( + T8 60 ) T7 ) )
(or ( <= ( + T7 79 )  ( + T8 60 ) ) ( <= ( + T8 93 )( + T7 67 ) ) )
(or ( <= ( + T7 129 )  ( + T8 93 ) ) ( <= ( + T8 104 )( + T7 79 ) ) )
(or ( <= ( + T7 221 )  ( + T8 104 ) ) ( <= ( + T8 110 )( + T7 129 ) ) )
(or ( <= ( + T7 247 )  ( + T8 110 ) ) ( <= ( + T8 202 )( + T7 221 ) ) )
(or ( <= ( + T7 311 )  ( + T8 202 ) ) ( <= ( + T8 247 )( + T7 247 ) ) )
(or ( <= ( + T7 349 )  ( + T8 247 ) ) ( <= ( + T8 309 )( + T7 311 ) ) )
(or ( <= ( + T7 435 )  ( + T8 309 ) ) ( <= ( + T8 367 )( + T7 349 ) ) )
(or ( <= ( + T7 498 )  ( + T8 367 ) ) ( <= ( + T8 422 )( + T7 435 ) ) )
(or ( <= ( + T7 573 )  ( + T8 422 ) ) ( <= ( + T8 502 )( + T7 498 ) ) )
(or ( <= ( + T7 574 )  ( + T8 502 ) ) ( <= ( + T8 514 )( + T7 573 ) ) )
(or ( <= ( + T7 663 )  ( + T8 514 ) ) ( <= ( + T8 516 )( + T7 574 ) ) )
(or ( <= ( + T7 67 ) T9 ) ( <= ( + T9 37 ) T7 ) )
(or ( <= ( + T7 79 )  ( + T9 37 ) ) ( <= ( + T9 83 )( + T7 67 ) ) )
(or ( <= ( + T7 129 )  ( + T9 83 ) ) ( <= ( + T9 160 )( + T7 79 ) ) )
(or ( <= ( + T7 221 )  ( + T9 160 ) ) ( <= ( + T9 231 )( + T7 129 ) ) )
(or ( <= ( + T7 247 )  ( + T9 231 ) ) ( <= ( + T9 264 )( + T7 221 ) ) )
(or ( <= ( + T7 311 )  ( + T9 264 ) ) ( <= ( + T9 289 )( + T7 247 ) ) )
(or ( <= ( + T7 349 )  ( + T9 289 ) ) ( <= ( + T9 344 )( + T7 311 ) ) )
(or ( <= ( + T7 435 )  ( + T9 344 ) ) ( <= ( + T9 396 )( + T7 349 ) ) )
(or ( <= ( + T7 498 )  ( + T9 396 ) ) ( <= ( + T9 484 )( + T7 435 ) ) )
(or ( <= ( + T7 573 )  ( + T9 484 ) ) ( <= ( + T9 540 )( + T7 498 ) ) )
(or ( <= ( + T7 574 )  ( + T9 540 ) ) ( <= ( + T9 635 )( + T7 573 ) ) )
(or ( <= ( + T7 663 )  ( + T9 635 ) ) ( <= ( + T9 648 )( + T7 574 ) ) )
(or ( <= ( + T7 67 ) T10 ) ( <= ( + T10 20 ) T7 ) )
(or ( <= ( + T7 79 )  ( + T10 20 ) ) ( <= ( + T10 52 )( + T7 67 ) ) )
(or ( <= ( + T7 129 )  ( + T10 52 ) ) ( <= ( + T10 151 )( + T7 79 ) ) )
(or ( <= ( + T7 221 )  ( + T10 151 ) ) ( <= ( + T10 185 )( + T7 129 ) ) )
(or ( <= ( + T7 247 )  ( + T10 185 ) ) ( <= ( + T10 192 )( + T7 221 ) ) )
(or ( <= ( + T7 311 )  ( + T10 192 ) ) ( <= ( + T10 291 )( + T7 247 ) ) )
(or ( <= ( + T7 349 )  ( + T10 291 ) ) ( <= ( + T10 313 )( + T7 311 ) ) )
(or ( <= ( + T7 435 )  ( + T10 313 ) ) ( <= ( + T10 331 )( + T7 349 ) ) )
(or ( <= ( + T7 498 )  ( + T10 331 ) ) ( <= ( + T10 415 )( + T7 435 ) ) )
(or ( <= ( + T7 573 )  ( + T10 415 ) ) ( <= ( + T10 447 )( + T7 498 ) ) )
(or ( <= ( + T7 574 )  ( + T10 447 ) ) ( <= ( + T10 522 )( + T7 573 ) ) )
(or ( <= ( + T7 663 )  ( + T10 522 ) ) ( <= ( + T10 597 )( + T7 574 ) ) )
(or ( <= ( + T8 60 ) T9 ) ( <= ( + T9 37 ) T8 ) )
(or ( <= ( + T8 93 )  ( + T9 37 ) ) ( <= ( + T9 83 )( + T8 60 ) ) )
(or ( <= ( + T8 104 )  ( + T9 83 ) ) ( <= ( + T9 160 )( + T8 93 ) ) )
(or ( <= ( + T8 110 )  ( + T9 160 ) ) ( <= ( + T9 231 )( + T8 104 ) ) )
(or ( <= ( + T8 202 )  ( + T9 231 ) ) ( <= ( + T9 264 )( + T8 110 ) ) )
(or ( <= ( + T8 247 )  ( + T9 264 ) ) ( <= ( + T9 289 )( + T8 202 ) ) )
(or ( <= ( + T8 309 )  ( + T9 289 ) ) ( <= ( + T9 344 )( + T8 247 ) ) )
(or ( <= ( + T8 367 )  ( + T9 344 ) ) ( <= ( + T9 396 )( + T8 309 ) ) )
(or ( <= ( + T8 422 )  ( + T9 396 ) ) ( <= ( + T9 484 )( + T8 367 ) ) )
(or ( <= ( + T8 502 )  ( + T9 484 ) ) ( <= ( + T9 540 )( + T8 422 ) ) )
(or ( <= ( + T8 514 )  ( + T9 540 ) ) ( <= ( + T9 635 )( + T8 502 ) ) )
(or ( <= ( + T8 516 )  ( + T9 635 ) ) ( <= ( + T9 648 )( + T8 514 ) ) )
(or ( <= ( + T8 60 ) T10 ) ( <= ( + T10 20 ) T8 ) )
(or ( <= ( + T8 93 )  ( + T10 20 ) ) ( <= ( + T10 52 )( + T8 60 ) ) )
(or ( <= ( + T8 104 )  ( + T10 52 ) ) ( <= ( + T10 151 )( + T8 93 ) ) )
(or ( <= ( + T8 110 )  ( + T10 151 ) ) ( <= ( + T10 185 )( + T8 104 ) ) )
(or ( <= ( + T8 202 )  ( + T10 185 ) ) ( <= ( + T10 192 )( + T8 110 ) ) )
(or ( <= ( + T8 247 )  ( + T10 192 ) ) ( <= ( + T10 291 )( + T8 202 ) ) )
(or ( <= ( + T8 309 )  ( + T10 291 ) ) ( <= ( + T10 313 )( + T8 247 ) ) )
(or ( <= ( + T8 367 )  ( + T10 313 ) ) ( <= ( + T10 331 )( + T8 309 ) ) )
(or ( <= ( + T8 422 )  ( + T10 331 ) ) ( <= ( + T10 415 )( + T8 367 ) ) )
(or ( <= ( + T8 502 )  ( + T10 415 ) ) ( <= ( + T10 447 )( + T8 422 ) ) )
(or ( <= ( + T8 514 )  ( + T10 447 ) ) ( <= ( + T10 522 )( + T8 502 ) ) )
(or ( <= ( + T8 516 )  ( + T10 522 ) ) ( <= ( + T10 597 )( + T8 514 ) ) )
(or ( <= ( + T9 37 ) T10 ) ( <= ( + T10 20 ) T9 ) )
(or ( <= ( + T9 83 )  ( + T10 20 ) ) ( <= ( + T10 52 )( + T9 37 ) ) )
(or ( <= ( + T9 160 )  ( + T10 52 ) ) ( <= ( + T10 151 )( + T9 83 ) ) )
(or ( <= ( + T9 231 )  ( + T10 151 ) ) ( <= ( + T10 185 )( + T9 160 ) ) )
(or ( <= ( + T9 264 )  ( + T10 185 ) ) ( <= ( + T10 192 )( + T9 231 ) ) )
(or ( <= ( + T9 289 )  ( + T10 192 ) ) ( <= ( + T10 291 )( + T9 264 ) ) )
(or ( <= ( + T9 344 )  ( + T10 291 ) ) ( <= ( + T10 313 )( + T9 289 ) ) )
(or ( <= ( + T9 396 )  ( + T10 313 ) ) ( <= ( + T10 331 )( + T9 344 ) ) )
(or ( <= ( + T9 484 )  ( + T10 331 ) ) ( <= ( + T10 415 )( + T9 396 ) ) )
(or ( <= ( + T9 540 )  ( + T10 415 ) ) ( <= ( + T10 447 )( + T9 484 ) ) )
(or ( <= ( + T9 635 )  ( + T10 447 ) ) ( <= ( + T10 522 )( + T9 540 ) ) )
(or ( <= ( + T9 648 )  ( + T10 522 ) ) ( <= ( + T10 597 )( + T9 635 ) ) )
( <= ( + T1 702 ) Z)
( <= ( + T2 645 ) Z)
( <= ( + T3 594 ) Z)
( <= ( + T4 683 ) Z)
( <= ( + T5 369 ) Z)
( <= ( + T6 562 ) Z)
( <= ( + T7 663 ) Z)
( <= ( + T8 516 ) Z)
( <= ( + T9 648 ) Z)
( <= ( + T10 597 ) Z)
( >= T1 0 )
( >= T2 0 )
( >= T3 0 )
( >= T4 0 )
( >= T5 0 )
( >= T6 0 )
( >= T7 0 )
( >= T8 0 )
( >= T9 0 )
( >= T10 0 )
) )
)(=> $phi $goal))))